100 10
238 624
800 579
535 282
691 236
574 555
817 754
401 856
451 635
490 300
601 690
263 518
640 624
683 920
468 453
606 548
383 687
323 380
645 217
738 849
253 402
294 544
949 562
761 573
442 841
632 345
426 741
626 457
243 219
157 563
864 531
621 482
578 676
130 253
332 352
486 854
670 546
708 414
632 492
504 727
648 350
279 551
636 926
717 28
288 257
589 277
742 858
743 550
608 639
410 838
432 871
481 586
536 652
347 643
201 443
521 347
324 771
506 547
675 148
282 307
587 497
249 882
614 663
346 372
452 303
516 815
584 389
874 404
918 673
363 492
234 611
408 812
94 362
467 437
713 97
303 116
377 533
812 396
508 428
784 702
608 498
372 567
553 767
357 476
511 703
388 779
312 618
909 527
278 435
809 512
686 445
384 533
368 484
203 463
770 571
164 679
703 372
622 161
817 797
479 286
246 646
